Route #1: 6 18 3 37 15 40 25 27 8 
Route #2: 41 2 13 4 34 29 21 
Route #3: 20 11 24 
Route #4: 33 10 12 39 23 43 31 9 
Route #5: 7 22 35 42 38 5 14 
Route #6: 26 16 44 32 28 36 
Route #7: 17 30 19 
cost 937.792
